data/solutions/recovery/degenerate/intermediate/binding/degenerate_intermediate_instance21/65.sol
Elapsed time: 0.03
Upper bound: 31205297.0
Planning weighted value: 1.22426111302e+11
C[0]=31205297.0
C[1]=31179604.0
C[2]=30807859.0
C[3]=30667646.0
C[4]=29997057.0
C[5]=29676395.0
C[6]=29361621.0
C[7]=25022351.0
C[8]=21968939.0
C[9]=21111777.0
C[10]=0.0
C[11]=0.0
y[0]=1
y[1]=6
y[2]=6
y[3]=4
y[4]=9
y[5]=4
y[6]=1
y[7]=1
y[8]=0
y[9]=4
y[10]=4
y[11]=3
y[12]=1
y[13]=1
y[14]=9
y[15]=9
y[16]=6
y[17]=4
y[18]=7
y[19]=1
y[20]=0
y[21]=8
y[22]=2
y[23]=1
y[24]=3
y[25]=9
y[26]=1
y[27]=6
y[28]=7
y[29]=1
y[30]=1
y[31]=8
y[32]=1
y[33]=5
y[34]=6
y[35]=0
y[36]=7
y[37]=3
y[38]=7
y[39]=1
y[40]=1
y[41]=0
y[42]=2
y[43]=4
y[44]=6
y[45]=2
y[46]=9
y[47]=2
y[48]=7
y[49]=0
y[50]=4
y[51]=5
y[52]=5
y[53]=5
y[54]=5
y[55]=4
y[56]=3
y[57]=9
y[58]=3
y[59]=3
y[60]=8
y[61]=4
y[62]=9
y[63]=0
y[64]=0
