data/solutions/recovery/degenerate/intermediate/binding/degenerate_intermediate_instance21/65.log

Log started (V12.6.3.0) Sun Apr 22 12:29:10 2018

New value for default parallel thread count: 1

Problem '/tmp/tmpmxuhyt.pyomo.lp' read.
Read time = 0.01 sec. (0.46 ticks)

Problem name         : /tmp/tmpmxuhyt.pyomo.lp
Objective sense      : Minimize
Variables            :     794  [Nneg: 1,  Binary: 780,  General Integer: 13]
Objective nonzeros   :       1
Linear constraints   :     157  [Less: 77,  Equal: 80]
  Nonzeros           :   32436
  RHS nonzeros       :      66

Variables            : Min LB: 0.000000         Max UB: 1.000000       
Objective nonzeros   : Min   : 1.000000         Max   : 1.000000       
Linear constraints   :
  Nonzeros           : Min   : 1.000000         Max   : 8298339.       
  RHS nonzeros       : Min   : 1.000000         Max   : 1.000000       
Tried aggregator 2 times.
MIP Presolve eliminated 117 rows and 583 columns.
Aggregator did 10 substitutions.
Reduced MIP has 30 rows, 201 columns, and 410 nonzeros.
Reduced MIP has 200 binaries, 1 generals, 0 SOSs, and 0 indicators.
Presolve time = 0.00 sec. (2.85 ticks)
Found incumbent of value 6.8471146e+07 after 0.00 sec. (3.71 ticks)
Probing time = 0.00 sec. (0.18 ticks)
Tried aggregator 1 time.
Reduced MIP has 30 rows, 201 columns, and 410 nonzeros.
Reduced MIP has 200 binaries, 1 generals, 0 SOSs, and 0 indicators.
Presolve time = 0.00 sec. (0.32 ticks)
Probing time = 0.00 sec. (0.18 ticks)
Clique table members: 20.
MIP emphasis: balance optimality and feasibility.
MIP search method: dynamic search.
Parallel mode: none, using 1 thread.
Root relaxation solution time = 0.00 sec. (0.27 ticks)

        Nodes                                         Cuts/
   Node  Left     Objective  IInf  Best Integer    Best Bound    ItCnt     Gap

*     0+    0                       6.84711e+07   3.12053e+07            54.43%
      0     0   3.12053e+07    12   6.84711e+07   3.12053e+07       41   54.43%
*     0+    0                       3.12053e+07   3.12053e+07             0.00%
      0     0        cutoff         3.12053e+07   3.12053e+07       41    0.00%
Elapsed time = 0.01 sec. (4.99 ticks, tree = 0.01 MB, solutions = 2)

Root node processing (before b&c):
  Real time             =    0.01 sec. (5.02 ticks)
Sequential b&c:
  Real time             =    0.00 sec. (0.00 ticks)
                          ------------
Total (root+branch&cut) =    0.01 sec. (5.02 ticks)

Solution pool: 2 solutions saved.

MIP - Integer optimal solution:  Objective =  3.1205297000e+07
Solution time =    0.01 sec.  Iterations = 41  Nodes = 0
Deterministic time = 5.02 ticks  (920.74 ticks/sec)


Incumbent solution written to file '/tmp/tmp_v3lTE.cplex.sol'.
